p cnf 1731
-24 -542
-25 -545
-26 -548
-27 -551
-28 -554
-29 -557
-30 -560
-31 -563
-32 -566
-33 -569
-34 -572
-35 -575
-36 -578
-37 -581
-38 -584
-39 -587
-40 -590
-41 -593
-42 -596
-43 -599
-44 -602
-45 -605
-46 -608
-47 609
-48 610
-49 611
-50 612
-51 613
-52 614
-53 615
-54 616
-55 617
-56 618
-57 619
-58 620
-59 621
-60 622
-61 623
-62 -25
-62 -26
25 26 62
-63 -27
-63 -28
27 28 63
-64 -29
-64 -30
29 30 64
-65 -31
-65 -32
31 32 65
-66 -33
-66 -34
33 34 66
-67 -35
-67 -36
35 36 67
-68 -37
-68 -38
37 38 68
-69 -39
-69 -40
39 40 69
-70 -41
-70 -42
41 42 70
-71 -43
-71 -44
43 44 71
-72 -45
-72 -46
45 46 72
-73 -47
-73 -48
47 48 73
-74 -49
-74 -50
49 50 74
-75 -51
-75 -52
51 52 75
-76 -53
-76 -54
53 54 76
-77 -55
-77 -56
55 56 77
-78 -57
-78 -58
57 58 78
-79 -59
-79 -60
59 60 79
-80 62
-80 63
-62 -63 80
-81 64
-81 65
-64 -65 81
-82 66
-82 67
-66 -67 82
-83 68
-83 69
-68 -69 83
-84 70
-84 71
-70 -71 84
-85 72
-85 73
-72 -73 85
-86 74
-86 75
-74 -75 86
-87 76
-87 77
-76 -77 87
-88 78
-88 79
-78 -79 88
-89 80
-89 81
-80 -81 89
-90 82
-90 83
-82 -83 90
-91 84
-91 85
-84 -85 91
-92 86
-92 87
-86 -87 92
-93 -61
-93 88
61 -88 93
-94 89
-94 90
-89 -90 94
-95 91
-95 92
-91 -92 95
-96 94
-96 95
-94 -95 96
-97 93
-97 96
-93 -96 97
-98 -24
-98 25
24 -25 98
-99 24
-99 -25
-24 25 99
-100 -98
-100 -99
98 99 100
-101 24
-101 25
-24 -25 101
-102 -24
-102 -100
24 100 102
-103 24
-103 100
-24 -100 103
-104 -102
-104 -103
102 103 104
-105 24
-105 -100
-24 100 105
-106 -101
-106 -105
101 105 106
-107 -25
-107 26
25 -26 107
-108 25
-108 -26
-25 26 108
-109 -107
-109 -108
107 108 109
-110 25
-110 26
-25 -26 110
-111 106
-111 -109
-106 109 111
-112 -106
-112 109
106 -109 112
-113 -111
-113 -112
111 112 113
-114 -106
-114 -109
106 109 114
-115 -110
-115 -114
110 114 115
-116 -26
-116 27
26 -27 116
-117 26
-117 -27
-26 27 117
-118 -116
-118 -117
116 117 118
-119 26
-119 27
-26 -27 119
-120 115
-120 -118
-115 118 120
-121 -115
-121 118
115 -118 121
-122 -120
-122 -121
120 121 122
-123 -115
-123 -118
115 118 123
-124 -119
-124 -123
119 123 124
-125 -27
-125 28
27 -28 125
-126 27
-126 -28
-27 28 126
-127 -125
-127 -126
125 126 127
-128 27
-128 28
-27 -28 128
-129 124
-129 -127
-124 127 129
-130 -124
-130 127
124 -127 130
-131 -129
-131 -130
129 130 131
-132 -124
-132 -127
124 127 132
-133 -128
-133 -132
128 132 133
-134 -28
-134 29
28 -29 134
-135 28
-135 -29
-28 29 135
-136 -134
-136 -135
134 135 136
-137 28
-137 29
-28 -29 137
-138 133
-138 -136
-133 136 138
-139 -133
-139 136
133 -136 139
-140 -138
-140 -139
138 139 140
-141 -133
-141 -136
133 136 141
-142 -137
-142 -141
137 141 142
-143 -29
-143 30
29 -30 143
-144 29
-144 -30
-29 30 144
-145 -143
-145 -144
143 144 145
-146 29
-146 30
-29 -30 146
-147 142
-147 -145
-142 145 147
-148 -142
-148 145
142 -145 148
-149 -147
-149 -148
147 148 149
-150 -142
-150 -145
142 145 150
-151 -146
-151 -150
146 150 151
-152 -30
-152 31
30 -31 152
-153 30
-153 -31
-30 31 153
-154 -152
-154 -153
152 153 154
-155 30
-155 31
-30 -31 155
-156 151
-156 -154
-151 154 156
-157 -151
-157 154
151 -154 157
-158 -156
-158 -157
156 157 158
-159 -151
-159 -154
151 154 159
-160 -155
-160 -159
155 159 160
-161 -31
-161 32
31 -32 161
-162 31
-162 -32
-31 32 162
-163 -161
-163 -162
161 162 163
-164 31
-164 32
-31 -32 164
-165 160
-165 -163
-160 163 165
-166 -160
-166 163
160 -163 166
-167 -165
-167 -166
165 166 167
-168 -160
-168 -163
160 163 168
-169 -164
-169 -168
164 168 169
-170 -32
-170 33
32 -33 170
-171 32
-171 -33
-32 33 171
-172 -170
-172 -171
170 171 172
-173 32
-173 33
-32 -33 173
-174 169
-174 -172
-169 172 174
-175 -169
-175 172
169 -172 175
-176 -174
-176 -175
174 175 176
-177 -169
-177 -172
169 172 177
-178 -173
-178 -177
173 177 178
-179 -33
-179 34
33 -34 179
-180 33
-180 -34
-33 34 180
-181 -179
-181 -180
179 180 181
-182 33
-182 34
-33 -34 182
-183 178
-183 -181
-178 181 183
-184 -178
-184 181
178 -181 184
-185 -183
-185 -184
183 184 185
-186 -178
-186 -181
178 181 186
-187 -182
-187 -186
182 186 187
-188 -34
-188 35
34 -35 188
-189 34
-189 -35
-34 35 189
-190 -188
-190 -189
188 189 190
-191 34
-191 35
-34 -35 191
-192 187
-192 -190
-187 190 192
-193 -187
-193 190
187 -190 193
-194 -192
-194 -193
192 193 194
-195 -187
-195 -190
187 190 195
-196 -191
-196 -195
191 195 196
-197 -35
-197 36
35 -36 197
-198 35
-198 -36
-35 36 198
-199 -197
-199 -198
197 198 199
-200 35
-200 36
-35 -36 200
-201 196
-201 -199
-196 199 201
-202 -196
-202 199
196 -199 202
-203 -201
-203 -202
201 202 203
-204 -196
-204 -199
196 199 204
-205 -200
-205 -204
200 204 205
-206 -36
-206 37
36 -37 206
-207 36
-207 -37
-36 37 207
-208 -206
-208 -207
206 207 208
-209 36
-209 37
-36 -37 209
-210 205
-210 -208
-205 208 210
-211 -205
-211 208
205 -208 211
-212 -210
-212 -211
210 211 212
-213 -205
-213 -208
205 208 213
-214 -209
-214 -213
209 213 214
-215 -37
-215 38
37 -38 215
-216 37
-216 -38
-37 38 216
-217 -215
-217 -216
215 216 217
-218 37
-218 38
-37 -38 218
-219 214
-219 -217
-214 217 219
-220 -214
-220 217
214 -217 220
-221 -219
-221 -220
219 220 221
-222 -214
-222 -217
214 217 222
-223 -218
-223 -222
218 222 223
-224 -38
-224 39
38 -39 224
-225 38
-225 -39
-38 39 225
-226 -224
-226 -225
224 225 226
-227 38
-227 39
-38 -39 227
-228 223
-228 -226
-223 226 228
-229 -223
-229 226
223 -226 229
-230 -228
-230 -229
228 229 230
-231 -223
-231 -226
223 226 231
-232 -227
-232 -231
227 231 232
-233 -39
-233 40
39 -40 233
-234 39
-234 -40
-39 40 234
-235 -233
-235 -234
233 234 235
-236 39
-236 40
-39 -40 236
-237 232
-237 -235
-232 235 237
-238 -232
-238 235
232 -235 238
-239 -237
-239 -238
237 238 239
-240 -232
-240 -235
232 235 240
-241 -236
-241 -240
236 240 241
-242 -40
-242 41
40 -41 242
-243 40
-243 -41
-40 41 243
-244 -242
-244 -243
242 243 244
-245 40
-245 41
-40 -41 245
-246 241
-246 -244
-241 244 246
-247 -241
-247 244
241 -244 247
-248 -246
-248 -247
246 247 248
-249 -241
-249 -244
241 244 249
-250 -245
-250 -249
245 249 250
-251 -41
-251 42
41 -42 251
-252 41
-252 -42
-41 42 252
-253 -251
-253 -252
251 252 253
-254 41
-254 42
-41 -42 254
-255 250
-255 -253
-250 253 255
-256 -250
-256 253
250 -253 256
-257 -255
-257 -256
255 256 257
-258 -250
-258 -253
250 253 258
-259 -254
-259 -258
254 258 259
-260 -42
-260 43
42 -43 260
-261 42
-261 -43
-42 43 261
-262 -260
-262 -261
260 261 262
-263 42
-263 43
-42 -43 263
-264 259
-264 -262
-259 262 264
-265 -259
-265 262
259 -262 265
-266 -264
-266 -265
264 265 266
-267 -259
-267 -262
259 262 267
-268 -263
-268 -267
263 267 268
-269 -43
-269 44
43 -44 269
-270 43
-270 -44
-43 44 270
-271 -269
-271 -270
269 270 271
-272 43
-272 44
-43 -44 272
-273 268
-273 -271
-268 271 273
-274 -268
-274 271
268 -271 274
-275 -273
-275 -274
273 274 275
-276 -268
-276 -271
268 271 276
-277 -272
-277 -276
272 276 277
-278 -44
-278 45
44 -45 278
-279 44
-279 -45
-44 45 279
-280 -278
-280 -279
278 279 280
-281 44
-281 45
-44 -45 281
-282 277
-282 -280
-277 280 282
-283 -277
-283 280
277 -280 283
-284 -282
-284 -283
282 283 284
-285 -277
-285 -280
277 280 285
-286 -281
-286 -285
281 285 286
-287 -45
-287 46
45 -46 287
-288 45
-288 -46
-45 46 288
-289 -287
-289 -288
287 288 289
-290 45
-290 46
-45 -46 290
-291 286
-291 -289
-286 289 291
-292 -286
-292 289
286 -289 292
-293 -291
-293 -292
291 292 293
-294 -286
-294 -289
286 289 294
-295 -290
-295 -294
290 294 295
-296 -46
-296 47
46 -47 296
-297 46
-297 -47
-46 47 297
-298 -296
-298 -297
296 297 298
-299 46
-299 47
-46 -47 299
-300 295
-300 -298
-295 298 300
-301 -295
-301 298
295 -298 301
-302 -300
-302 -301
300 301 302
-303 -295
-303 -298
295 298 303
-304 -299
-304 -303
299 303 304
-305 -47
-305 48
47 -48 305
-306 47
-306 -48
-47 48 306
-307 -305
-307 -306
305 306 307
-308 47
-308 48
-47 -48 308
-309 304
-309 -307
-304 307 309
-310 -304
-310 307
304 -307 310
-311 -309
-311 -310
309 310 311
-312 -304
-312 -307
304 307 312
-313 -308
-313 -312
308 312 313
-314 -48
-314 49
48 -49 314
-315 48
-315 -49
-48 49 315
-316 -314
-316 -315
314 315 316
-317 48
-317 49
-48 -49 317
-318 313
-318 -316
-313 316 318
-319 -313
-319 316
313 -316 319
-320 -318
-320 -319
318 319 320
-321 -313
-321 -316
313 316 321
-322 -317
-322 -321
317 321 322
-323 -49
-323 50
49 -50 323
-324 49
-324 -50
-49 50 324
-325 -323
-325 -324
323 324 325
-326 49
-326 50
-49 -50 326
-327 322
-327 -325
-322 325 327
-328 -322
-328 325
322 -325 328
-329 -327
-329 -328
327 328 329
-330 -322
-330 -325
322 325 330
-331 -326
-331 -330
326 330 331
-332 -50
-332 51
50 -51 332
-333 50
-333 -51
-50 51 333
-334 -332
-334 -333
332 333 334
-335 50
-335 51
-50 -51 335
-336 331
-336 -334
-331 334 336
-337 -331
-337 334
331 -334 337
-338 -336
-338 -337
336 337 338
-339 -331
-339 -334
331 334 339
-340 -335
-340 -339
335 339 340
-341 -51
-341 52
51 -52 341
-342 51
-342 -52
-51 52 342
-343 -341
-343 -342
341 342 343
-344 51
-344 52
-51 -52 344
-345 340
-345 -343
-340 343 345
-346 -340
-346 343
340 -343 346
-347 -345
-347 -346
345 346 347
-348 -340
-348 -343
340 343 348
-349 -344
-349 -348
344 348 349
-350 -52
-350 53
52 -53 350
-351 52
-351 -53
-52 53 351
-352 -350
-352 -351
350 351 352
-353 52
-353 53
-52 -53 353
-354 349
-354 -352
-349 352 354
-355 -349
-355 352
349 -352 355
-356 -354
-356 -355
354 355 356
-357 -349
-357 -352
349 352 357
-358 -353
-358 -357
353 357 358
-359 -53
-359 54
53 -54 359
-360 53
-360 -54
-53 54 360
-361 -359
-361 -360
359 360 361
-362 53
-362 54
-53 -54 362
-363 358
-363 -361
-358 361 363
-364 -358
-364 361
358 -361 364
-365 -363
-365 -364
363 364 365
-366 -358
-366 -361
358 361 366
-367 -362
-367 -366
362 366 367
-368 -54
-368 55
54 -55 368
-369 54
-369 -55
-54 55 369
-370 -368
-370 -369
368 369 370
-371 54
-371 55
-54 -55 371
-372 367
-372 -370
-367 370 372
-373 -367
-373 370
367 -370 373
-374 -372
-374 -373
372 373 374
-375 -367
-375 -370
367 370 375
-376 -371
-376 -375
371 375 376
-377 -55
-377 56
55 -56 377
-378 55
-378 -56
-55 56 378
-379 -377
-379 -378
377 378 379
-380 55
-380 56
-55 -56 380
-381 376
-381 -379
-376 379 381
-382 -376
-382 379
376 -379 382
-383 -381
-383 -382
381 382 383
-384 -376
-384 -379
376 379 384
-385 -380
-385 -384
380 384 385
-386 -56
-386 57
56 -57 386
-387 56
-387 -57
-56 57 387
-388 -386
-388 -387
386 387 388
-389 56
-389 57
-56 -57 389
-390 385
-390 -388
-385 388 390
-391 -385
-391 388
385 -388 391
-392 -390
-392 -391
390 391 392
-393 -385
-393 -388
385 388 393
-394 -389
-394 -393
389 393 394
-395 -57
-395 58
57 -58 395
-396 57
-396 -58
-57 58 396
-397 -395
-397 -396
395 396 397
-398 57
-398 58
-57 -58 398
-399 394
-399 -397
-394 397 399
-400 -394
-400 397
394 -397 400
-401 -399
-401 -400
399 400 401
-402 -394
-402 -397
394 397 402
-403 -398
-403 -402
398 402 403
-404 -58
-404 59
58 -59 404
-405 58
-405 -59
-58 59 405
-406 -404
-406 -405
404 405 406
-407 58
-407 59
-58 -59 407
-408 403
-408 -406
-403 406 408
-409 -403
-409 406
403 -406 409
-410 -408
-410 -409
408 409 410
-411 -403
-411 -406
403 406 411
-412 -407
-412 -411
407 411 412
-413 -59
-413 60
59 -60 413
-414 59
-414 -60
-59 60 414
-415 -413
-415 -414
413 414 415
-416 59
-416 60
-59 -60 416
-417 412
-417 -415
-412 415 417
-418 -412
-418 415
412 -415 418
-419 -417
-419 -418
417 418 419
-420 -412
-420 -415
412 415 420
-421 -416
-421 -420
416 420 421
-422 -60
-422 61
60 -61 422
-423 60
-423 -61
-60 61 423
-424 -422
-424 -423
422 423 424
-425 60
-425 61
-60 -61 425
-426 421
-426 -424
-421 424 426
-427 -421
-427 424
421 -424 427
-428 -426
-428 -427
426 427 428
-429 -421
-429 -424
421 424 429
-430 -425
-430 -429
425 429 430
-431 24
-431 -104
-24 104 431
-432 -24
-432 26
24 -26 432
-433 -431
-433 -432
431 432 433
-434 24
-434 -113
-24 113 434
-435 -24
-435 27
24 -27 435
-436 -434
-436 -435
434 435 436
-437 24
-437 -122
-24 122 437
-438 -24
-438 28
24 -28 438
-439 -437
-439 -438
437 438 439
-440 24
-440 -131
-24 131 440
-441 -24
-441 29
24 -29 441
-442 -440
-442 -441
440 441 442
-443 24
-443 -140
-24 140 443
-444 -24
-444 30
24 -30 444
-445 -443
-445 -444
443 444 445
-446 24
-446 -149
-24 149 446
-447 -24
-447 31
24 -31 447
-448 -446
-448 -447
446 447 448
-449 24
-449 -158
-24 158 449
-450 -24
-450 32
24 -32 450
-451 -449
-451 -450
449 450 451
-452 24
-452 -167
-24 167 452
-453 -24
-453 33
24 -33 453
-454 -452
-454 -453
452 453 454
-455 24
-455 -176
-24 176 455
-456 -24
-456 34
24 -34 456
-457 -455
-457 -456
455 456 457
-458 24
-458 -185
-24 185 458
-459 -24
-459 35
24 -35 459
-460 -458
-460 -459
458 459 460
-461 24
-461 -194
-24 194 461
-462 -24
-462 36
24 -36 462
-463 -461
-463 -462
461 462 463
-464 24
-464 -203
-24 203 464
-465 -24
-465 37
24 -37 465
-466 -464
-466 -465
464 465 466
-467 24
-467 -212
-24 212 467
-468 -24
-468 38
24 -38 468
-469 -467
-469 -468
467 468 469
-470 24
-470 -221
-24 221 470
-471 -24
-471 39
24 -39 471
-472 -470
-472 -471
470 471 472
-473 24
-473 -230
-24 230 473
-474 -24
-474 40
24 -40 474
-475 -473
-475 -474
473 474 475
-476 24
-476 -239
-24 239 476
-477 -24
-477 41
24 -41 477
-478 -476
-478 -477
476 477 478
-479 24
-479 -248
-24 248 479
-480 -24
-480 42
24 -42 480
-481 -479
-481 -480
479 480 481
-482 24
-482 -257
-24 257 482
-483 -24
-483 43
24 -43 483
-484 -482
-484 -483
482 483 484
-485 24
-485 -266
-24 266 485
-486 -24
-486 44
24 -44 486
-487 -485
-487 -486
485 486 487
-488 24
-488 -275
-24 275 488
-489 -24
-489 45
24 -45 489
-490 -488
-490 -489
488 489 490
-491 24
-491 -284
-24 284 491
-492 -24
-492 46
24 -46 492
-493 -491
-493 -492
491 492 493
-494 24
-494 -293
-24 293 494
-495 -24
-495 47
24 -47 495
-496 -494
-496 -495
494 495 496
-497 24
-497 -302
-24 302 497
-498 -24
-498 48
24 -48 498
-499 -497
-499 -498
497 498 499
-500 24
-500 -311
-24 311 500
-501 -24
-501 49
24 -49 501
-502 -500
-502 -501
500 501 502
-503 24
-503 -320
-24 320 503
-504 -24
-504 50
24 -50 504
-505 -503
-505 -504
503 504 505
-506 24
-506 -329
-24 329 506
-507 -24
-507 51
24 -51 507
-508 -506
-508 -507
506 507 508
-509 24
-509 -338
-24 338 509
-510 -24
-510 52
24 -52 510
-511 -509
-511 -510
509 510 511
-512 24
-512 -347
-24 347 512
-513 -24
-513 53
24 -53 513
-514 -512
-514 -513
512 513 514
-515 24
-515 -356
-24 356 515
-516 -24
-516 54
24 -54 516
-517 -515
-517 -516
515 516 517
-518 24
-518 -365
-24 365 518
-519 -24
-519 55
24 -55 519
-520 -518
-520 -519
518 519 520
-521 24
-521 -374
-24 374 521
-522 -24
-522 56
24 -56 522
-523 -521
-523 -522
521 522 523
-524 24
-524 -383
-24 383 524
-525 -24
-525 57
24 -57 525
-526 -524
-526 -525
524 525 526
-527 24
-527 -392
-24 392 527
-528 -24
-528 58
24 -58 528
-529 -527
-529 -528
527 528 529
-530 24
-530 -401
-24 401 530
-531 -24
-531 59
24 -59 531
-532 -530
-532 -531
530 531 532
-533 24
-533 -410
-24 410 533
-534 -24
-534 60
24 -60 534
-535 -533
-535 -534
533 534 535
-536 24
-536 -419
-24 419 536
-537 -24
-537 61
24 -61 537
-538 -536
-538 -537
536 537 538
-539 24
-539 -428
-24 428 539
-540 1
-540 97
-1 -97 540
-541 -97
-541 98
97 -98 541
-542 -540
-542 -541
540 541 542
-543 2
-543 97
-2 -97 543
-544 -97
-544 -433
97 433 544
-545 -543
-545 -544
543 544 545
-546 3
-546 97
-3 -97 546
-547 -97
-547 -436
97 436 547
-548 -546
-548 -547
546 547 548
-549 4
-549 97
-4 -97 549
-550 -97
-550 -439
97 439 550
-551 -549
-551 -550
549 550 551
-552 5
-552 97
-5 -97 552
-553 -97
-553 -442
97 442 553
-554 -552
-554 -553
552 553 554
-555 6
-555 97
-6 -97 555
-556 -97
-556 -445
97 445 556
-557 -555
-557 -556
555 556 557
-558 7
-558 97
-7 -97 558
-559 -97
-559 -448
97 448 559
-560 -558
-560 -559
558 559 560
-561 8
-561 97
-8 -97 561
-562 -97
-562 -451
97 451 562
-563 -561
-563 -562
561 562 563
-564 9
-564 97
-9 -97 564
-565 -97
-565 -454
97 454 565
-566 -564
-566 -565
564 565 566
-567 10
-567 97
-10 -97 567
-568 -97
-568 -457
97 457 568
-569 -567
-569 -568
567 568 569
-570 11
-570 97
-11 -97 570
-571 -97
-571 -460
97 460 571
-572 -570
-572 -571
570 571 572
-573 12
-573 97
-12 -97 573
-574 -97
-574 -463
97 463 574
-575 -573
-575 -574
573 574 575
-576 13
-576 97
-13 -97 576
-577 -97
-577 -466
97 466 577
-578 -576
-578 -577
576 577 578
-579 14
-579 97
-14 -97 579
-580 -97
-580 -469
97 469 580
-581 -579
-581 -580
579 580 581
-582 15
-582 97
-15 -97 582
-583 -97
-583 -472
97 472 583
-584 -582
-584 -583
582 583 584
-585 16
-585 97
-16 -97 585
-586 -97
-586 -475
97 475 586
-587 -585
-587 -586
585 586 587
-588 17
-588 97
-17 -97 588
-589 -97
-589 -478
97 478 589
-590 -588
-590 -589
588 589 590
-591 18
-591 97
-18 -97 591
-592 -97
-592 -481
97 481 592
-593 -591
-593 -592
591 592 593
-594 19
-594 97
-19 -97 594
-595 -97
-595 -484
97 484 595
-596 -594
-596 -595
594 595 596
-597 20
-597 97
-20 -97 597
-598 -97
-598 -487
97 487 598
-599 -597
-599 -598
597 598 599
-600 21
-600 97
-21 -97 600
-601 -97
-601 -490
97 490 601
-602 -600
-602 -601
600 601 602
-603 22
-603 97
-22 -97 603
-604 -97
-604 -493
97 493 604
-605 -603
-605 -604
603 604 605
-606 23
-606 97
-23 -97 606
-607 -97
-607 -496
97 496 607
-608 -606
-608 -607
606 607 608
-609 -97
-609 -499
97 499 609
-610 -97
-610 -502
97 502 610
-611 -97
-611 -505
97 505 611
-612 -97
-612 -508
97 508 612
-613 -97
-613 -511
97 511 613
-614 -97
-614 -514
97 514 614
-615 -97
-615 -517
97 517 615
-616 -97
-616 -520
97 520 616
-617 -97
-617 -523
97 523 617
-618 -97
-618 -526
97 526 618
-619 -97
-619 -529
97 529 619
-620 -97
-620 -532
97 532 620
-621 -97
-621 -535
97 535 621
-622 -97
-622 -538
97 538 622
-623 -97
-623 539
97 -539 623
-624 -61
-624 430
61 -430 624
-625 24
-625 -624
-24 624 625
625
